\ENCODING=ISO-8859-1
\Problem name: kMIS

Maximize
 obj: x1 + x2 + x3 + x4 + x5 + x6 + x7 + x8 + x9 + x10 + x11 + x12 + x13 + x14
      + x15 + x16 + x17 + x18 + x19 + x20 + x21 + x22 + x23 + x24 + x25
Subject To
 c1:   x26 + x27 + x28 + x29 + x30 + x31 + x32 + x33 + x34 + x35 + x36 + x37
       + x38 + x39 + x40 + x41 + x42 + x43 + x44 + x45 + x46 + x47 + x48 + x49
       + x50  = 7
 c2:   x1 + x26 <= 1
 c3:   x2 + x26 <= 1
 c4:   x4 + x26 <= 1
 c5:   x7 + x26 <= 1
 c6:   x9 + x26 <= 1
 c7:   x10 + x26 <= 1
 c8:   x11 + x26 <= 1
 c9:   x13 + x26 <= 1
 c10:  x14 + x26 <= 1
 c11:  x18 + x26 <= 1
 c12:  x21 + x26 <= 1
 c13:  x22 + x26 <= 1
 c14:  x25 + x26 <= 1
 c15:  x1 + x27 <= 1
 c16:  x2 + x27 <= 1
 c17:  x4 + x27 <= 1
 c18:  x6 + x27 <= 1
 c19:  x7 + x27 <= 1
 c20:  x8 + x27 <= 1
 c21:  x10 + x27 <= 1
 c22:  x13 + x27 <= 1
 c23:  x17 + x27 <= 1
 c24:  x19 + x27 <= 1
 c25:  x20 + x27 <= 1
 c26:  x21 + x27 <= 1
 c27:  x22 + x27 <= 1
 c28:  x25 + x27 <= 1
 c29:  x2 + x28 <= 1
 c30:  x5 + x28 <= 1
 c31:  x11 + x28 <= 1
 c32:  x12 + x28 <= 1
 c33:  x14 + x28 <= 1
 c34:  x15 + x28 <= 1
 c35:  x16 + x28 <= 1
 c36:  x17 + x28 <= 1
 c37:  x18 + x28 <= 1
 c38:  x20 + x28 <= 1
 c39:  x22 + x28 <= 1
 c40:  x23 + x28 <= 1
 c41:  x24 + x28 <= 1
 c42:  x25 + x28 <= 1
 c43:  x3 + x29 <= 1
 c44:  x4 + x29 <= 1
 c45:  x5 + x29 <= 1
 c46:  x9 + x29 <= 1
 c47:  x12 + x29 <= 1
 c48:  x13 + x29 <= 1
 c49:  x14 + x29 <= 1
 c50:  x15 + x29 <= 1
 c51:  x18 + x29 <= 1
 c52:  x19 + x29 <= 1
 c53:  x21 + x29 <= 1
 c54:  x23 + x29 <= 1
 c55:  x24 + x29 <= 1
 c56:  x3 + x30 <= 1
 c57:  x5 + x30 <= 1
 c58:  x6 + x30 <= 1
 c59:  x7 + x30 <= 1
 c60:  x8 + x30 <= 1
 c61:  x9 + x30 <= 1
 c62:  x10 + x30 <= 1
 c63:  x11 + x30 <= 1
 c64:  x12 + x30 <= 1
 c65:  x13 + x30 <= 1
 c66:  x14 + x30 <= 1
 c67:  x22 + x30 <= 1
 c68:  x25 + x30 <= 1
 c69:  x1 + x31 <= 1
 c70:  x2 + x31 <= 1
 c71:  x3 + x31 <= 1
 c72:  x4 + x31 <= 1
 c73:  x5 + x31 <= 1
 c74:  x6 + x31 <= 1
 c75:  x7 + x31 <= 1
 c76:  x8 + x31 <= 1
 c77:  x10 + x31 <= 1
 c78:  x11 + x31 <= 1
 c79:  x15 + x31 <= 1
 c80:  x16 + x31 <= 1
 c81:  x17 + x31 <= 1
 c82:  x20 + x31 <= 1
 c83:  x21 + x31 <= 1
 c84:  x25 + x31 <= 1
 c85:  x2 + x32 <= 1
 c86:  x3 + x32 <= 1
 c87:  x5 + x32 <= 1
 c88:  x6 + x32 <= 1
 c89:  x7 + x32 <= 1
 c90:  x10 + x32 <= 1
 c91:  x12 + x32 <= 1
 c92:  x13 + x32 <= 1
 c93:  x14 + x32 <= 1
 c94:  x15 + x32 <= 1
 c95:  x17 + x32 <= 1
 c96:  x19 + x32 <= 1
 c97:  x20 + x32 <= 1
 c98:  x21 + x32 <= 1
 c99:  x23 + x32 <= 1
 c100: x24 + x32 <= 1
 c101: x25 + x32 <= 1
 c102: x2 + x33 <= 1
 c103: x3 + x33 <= 1
 c104: x4 + x33 <= 1
 c105: x6 + x33 <= 1
 c106: x8 + x33 <= 1
 c107: x9 + x33 <= 1
 c108: x11 + x33 <= 1
 c109: x15 + x33 <= 1
 c110: x23 + x33 <= 1
 c111: x24 + x33 <= 1
 c112: x1 + x34 <= 1
 c113: x4 + x34 <= 1
 c114: x6 + x34 <= 1
 c115: x7 + x34 <= 1
 c116: x11 + x34 <= 1
 c117: x16 + x34 <= 1
 c118: x18 + x34 <= 1
 c119: x19 + x34 <= 1
 c120: x21 + x34 <= 1
 c121: x23 + x34 <= 1
 c122: x1 + x35 <= 1
 c123: x3 + x35 <= 1
 c124: x5 + x35 <= 1
 c125: x6 + x35 <= 1
 c126: x8 + x35 <= 1
 c127: x10 + x35 <= 1
 c128: x12 + x35 <= 1
 c129: x14 + x35 <= 1
 c130: x18 + x35 <= 1
 c131: x23 + x35 <= 1
 c132: x1 + x36 <= 1
 c133: x3 + x36 <= 1
 c134: x4 + x36 <= 1
 c135: x5 + x36 <= 1
 c136: x6 + x36 <= 1
 c137: x7 + x36 <= 1
 c138: x9 + x36 <= 1
 c139: x11 + x36 <= 1
 c140: x12 + x36 <= 1
 c141: x15 + x36 <= 1
 c142: x16 + x36 <= 1
 c143: x17 + x36 <= 1
 c144: x18 + x36 <= 1
 c145: x22 + x36 <= 1
 c146: x10 + x37 <= 1
 c147: x14 + x37 <= 1
 c148: x16 + x37 <= 1
 c149: x17 + x37 <= 1
 c150: x18 + x37 <= 1
 c151: x19 + x37 <= 1
 c152: x20 + x37 <= 1
 c153: x23 + x37 <= 1
 c154: x24 + x37 <= 1
 c155: x3 + x38 <= 1
 c156: x5 + x38 <= 1
 c157: x6 + x38 <= 1
 c158: x8 + x38 <= 1
 c159: x9 + x38 <= 1
 c160: x11 + x38 <= 1
 c161: x13 + x38 <= 1
 c162: x16 + x38 <= 1
 c163: x17 + x38 <= 1
 c164: x18 + x38 <= 1
 c165: x19 + x38 <= 1
 c166: x21 + x38 <= 1
 c167: x22 + x38 <= 1
 c168: x25 + x38 <= 1
 c169: x1 + x39 <= 1
 c170: x2 + x39 <= 1
 c171: x4 + x39 <= 1
 c172: x8 + x39 <= 1
 c173: x10 + x39 <= 1
 c174: x11 + x39 <= 1
 c175: x13 + x39 <= 1
 c176: x14 + x39 <= 1
 c177: x15 + x39 <= 1
 c178: x18 + x39 <= 1
 c179: x19 + x39 <= 1
 c180: x22 + x39 <= 1
 c181: x24 + x39 <= 1
 c182: x1 + x40 <= 1
 c183: x2 + x40 <= 1
 c184: x4 + x40 <= 1
 c185: x5 + x40 <= 1
 c186: x6 + x40 <= 1
 c187: x12 + x40 <= 1
 c188: x13 + x40 <= 1
 c189: x15 + x40 <= 1
 c190: x16 + x40 <= 1
 c191: x17 + x40 <= 1
 c192: x18 + x40 <= 1
 c193: x21 + x40 <= 1
 c194: x22 + x40 <= 1
 c195: x23 + x40 <= 1
 c196: x25 + x40 <= 1
 c197: x2 + x41 <= 1
 c198: x3 + x41 <= 1
 c199: x6 + x41 <= 1
 c200: x7 + x41 <= 1
 c201: x8 + x41 <= 1
 c202: x11 + x41 <= 1
 c203: x12 + x41 <= 1
 c204: x13 + x41 <= 1
 c205: x14 + x41 <= 1
 c206: x15 + x41 <= 1
 c207: x16 + x41 <= 1
 c208: x18 + x41 <= 1
 c209: x19 + x41 <= 1
 c210: x24 + x41 <= 1
 c211: x3 + x42 <= 1
 c212: x8 + x42 <= 1
 c213: x12 + x42 <= 1
 c214: x13 + x42 <= 1
 c215: x15 + x42 <= 1
 c216: x16 + x42 <= 1
 c217: x19 + x42 <= 1
 c218: x20 + x42 <= 1
 c219: x25 + x42 <= 1
 c220: x1 + x43 <= 1
 c221: x2 + x43 <= 1
 c222: x4 + x43 <= 1
 c223: x5 + x43 <= 1
 c224: x7 + x43 <= 1
 c225: x8 + x43 <= 1
 c226: x9 + x43 <= 1
 c227: x12 + x43 <= 1
 c228: x13 + x43 <= 1
 c229: x14 + x43 <= 1
 c230: x16 + x43 <= 1
 c231: x19 + x43 <= 1
 c232: x20 + x43 <= 1
 c233: x23 + x43 <= 1
 c234: x24 + x43 <= 1
 c235: x4 + x44 <= 1
 c236: x6 + x44 <= 1
 c237: x9 + x44 <= 1
 c238: x10 + x44 <= 1
 c239: x12 + x44 <= 1
 c240: x17 + x44 <= 1
 c241: x18 + x44 <= 1
 c242: x22 + x44 <= 1
 c243: x24 + x44 <= 1
 c244: x1 + x45 <= 1
 c245: x2 + x45 <= 1
 c246: x3 + x45 <= 1
 c247: x10 + x45 <= 1
 c248: x11 + x45 <= 1
 c249: x12 + x45 <= 1
 c250: x14 + x45 <= 1
 c251: x17 + x45 <= 1
 c252: x18 + x45 <= 1
 c253: x21 + x45 <= 1
 c254: x24 + x45 <= 1
 c255: x25 + x45 <= 1
 c256: x1 + x46 <= 1
 c257: x3 + x46 <= 1
 c258: x4 + x46 <= 1
 c259: x6 + x46 <= 1
 c260: x7 + x46 <= 1
 c261: x9 + x46 <= 1
 c262: x10 + x46 <= 1
 c263: x11 + x46 <= 1
 c264: x13 + x46 <= 1
 c265: x16 + x46 <= 1
 c266: x18 + x46 <= 1
 c267: x19 + x46 <= 1
 c268: x20 + x46 <= 1
 c269: x22 + x46 <= 1
 c270: x24 + x46 <= 1
 c271: x2 + x47 <= 1
 c272: x5 + x47 <= 1
 c273: x6 + x47 <= 1
 c274: x9 + x47 <= 1
 c275: x12 + x47 <= 1
 c276: x14 + x47 <= 1
 c277: x17 + x47 <= 1
 c278: x21 + x47 <= 1
 c279: x23 + x47 <= 1
 c280: x1 + x48 <= 1
 c281: x3 + x48 <= 1
 c282: x4 + x48 <= 1
 c283: x5 + x48 <= 1
 c284: x7 + x48 <= 1
 c285: x8 + x48 <= 1
 c286: x11 + x48 <= 1
 c287: x12 + x48 <= 1
 c288: x13 + x48 <= 1
 c289: x18 + x48 <= 1
 c290: x20 + x48 <= 1
 c291: x23 + x48 <= 1
 c292: x24 + x48 <= 1
 c293: x3 + x49 <= 1
 c294: x4 + x49 <= 1
 c295: x9 + x49 <= 1
 c296: x10 + x49 <= 1
 c297: x13 + x49 <= 1
 c298: x14 + x49 <= 1
 c299: x15 + x49 <= 1
 c300: x16 + x49 <= 1
 c301: x17 + x49 <= 1
 c302: x19 + x49 <= 1
 c303: x20 + x49 <= 1
 c304: x21 + x49 <= 1
 c305: x23 + x49 <= 1
 c306: x25 + x49 <= 1
 c307: x3 + x50 <= 1
 c308: x4 + x50 <= 1
 c309: x5 + x50 <= 1
 c310: x6 + x50 <= 1
 c311: x7 + x50 <= 1
 c312: x9 + x50 <= 1
 c313: x10 + x50 <= 1
 c314: x11 + x50 <= 1
 c315: x12 + x50 <= 1
 c316: x14 + x50 <= 1
 c317: x16 + x50 <= 1
 c318: x19 + x50 <= 1
 c319: x22 + x50 <= 1
 c320: x23 + x50 <= 1
 c321: x25 + x50 <= 1
Bounds
 0 <= x1 <= 1
 0 <= x2 <= 1
 0 <= x3 <= 1
 0 <= x4 <= 1
 0 <= x5 <= 1
 0 <= x6 <= 1
 0 <= x7 <= 1
 0 <= x8 <= 1
 0 <= x9 <= 1
 0 <= x10 <= 1
 0 <= x11 <= 1
 0 <= x12 <= 1
 0 <= x13 <= 1
 0 <= x14 <= 1
 0 <= x15 <= 1
 0 <= x16 <= 1
 0 <= x17 <= 1
 0 <= x18 <= 1
 0 <= x19 <= 1
 0 <= x20 <= 1
 0 <= x21 <= 1
 0 <= x22 <= 1
 0 <= x23 <= 1
 0 <= x24 <= 1
 0 <= x25 <= 1
 0 <= x26 <= 1
 0 <= x27 <= 1
 0 <= x28 <= 1
 0 <= x29 <= 1
 0 <= x30 <= 1
 0 <= x31 <= 1
 0 <= x32 <= 1
 0 <= x33 <= 1
 0 <= x34 <= 1
 0 <= x35 <= 1
 0 <= x36 <= 1
 0 <= x37 <= 1
 0 <= x38 <= 1
 0 <= x39 <= 1
 0 <= x40 <= 1
 0 <= x41 <= 1
 0 <= x42 <= 1
 0 <= x43 <= 1
 0 <= x44 <= 1
 0 <= x45 <= 1
 0 <= x46 <= 1
 0 <= x47 <= 1
 0 <= x48 <= 1
 0 <= x49 <= 1
 0 <= x50 <= 1
Binaries
 x1  x2  x3  x4  x5  x6  x7  x8  x9  x10  x11  x12  x13  x14  x15  x16  x17 
 x18  x19  x20  x21  x22  x23  x24  x25  x26  x27  x28  x29  x30  x31  x32 
 x33  x34  x35  x36  x37  x38  x39  x40  x41  x42  x43  x44  x45  x46  x47 
 x48  x49  x50 
End
